WARNING: for repeatability, setting FPU to use double precision
============================[ Problem Statistics ]=============================
|                                                                             |
|  Number of variables:         27899                                         |
|  Number of clauses:          576341                                         |
|  Parse time:                   0.15 s                                       |
|  Eliminated clauses:           0.05 Mb                                      |
|  Simplification time:          0.17 s                                       |
|                                                                             |
============================[ Search Statistics ]==============================
| Conflicts |          ORIGINAL         |          LEARNT          | Progress |
|           |    Vars  Clauses Literals |    Limit  Clauses Lit/Cl |          |
===============================================================================
|       100 |    3280    28683    90992 |    10517      100     30 | 71.526 % |
|       250 |    3280    28683    90992 |    11568      250     28 | 71.526 % |
|       475 |    3280    28683    90992 |    12725      475     27 | 71.526 % |
|       812 |    3280    28683    90992 |    13998      812     28 | 71.526 % |
|      1318 |    3280    28683    90992 |    15398     1318     30 | 71.526 % |
|      2077 |    3280    28683    90992 |    16937     2077     40 | 71.526 % |
|      3216 |    3280    28683    90992 |    18631     3216     76 | 71.526 % |
|      4924 |    3280    28683    90992 |    20494     4924     66 | 71.526 % |
|      7486 |    3280    28683    90992 |    22544     7486     91 | 71.526 % |
|     11330 |    3280    28683    90992 |    24798    11330     93 | 71.526 % |
|     17096 |    3280    28683    90992 |    27278    17096     99 | 71.526 % |
===============================================================================
restarts              : 63
conflicts             : 18526          (25780 /sec)
decisions             : 105614         (0.00 % random) (146970 /sec)
propagations          : 1706173        (2374278 /sec)
conflict literals     : 2019641        (5.72 % deleted)
Memory used           : 63.00 MB
CPU time              : 0.718607 s

SATISFIABLE
